p wcnf 65 160
w -2 0.367879 0
w 2 2.718282 0
w -3 0.367879 0
w 3 2.718282 0
w -5 0.367879 0
w 5 2.718282 0
w -6 0.367879 0
w 6 2.718282 0
w -8 0.367879 0
w 8 2.718282 0
w -9 0.367879 0
w 9 2.718282 0
w -11 0.367879 0
w 11 2.718282 0
w -12 0.367879 0
w 12 2.718282 0
w -14 0.367879 0
w 14 2.718282 0
w -16 0.367879 0
w 16 2.718282 0
w -17 0.367879 0
w 17 2.718282 0
w -19 0.367879 0
w 19 2.718282 0
w -20 0.367879 0
w 20 2.718282 0
w -22 0.367879 0
w 22 2.718282 0
w -23 0.367879 0
w 23 2.718282 0
w -25 0.367879 0
w 25 2.718282 0
w -26 0.367879 0
w 26 2.718282 0
w -28 0.367879 0
w 28 2.718282 0
w -30 0.367879 0
w 30 2.718282 0
w -31 0.367879 0
w 31 2.718282 0
w -33 0.367879 0
w 33 2.718282 0
w -34 0.367879 0
w 34 2.718282 0
w -36 0.367879 0
w 36 2.718282 0
w -37 0.367879 0
w 37 2.718282 0
w -39 0.367879 0
w 39 2.718282 0
w -40 0.367879 0
w 40 2.718282 0
w -42 0.367879 0
w 42 2.718282 0
w -44 0.367879 0
w 44 2.718282 0
w -45 0.367879 0
w 45 2.718282 0
w -47 0.367879 0
w 47 2.718282 0
w -48 0.367879 0
w 48 2.718282 0
w -50 0.367879 0
w 50 2.718282 0
w -51 0.367879 0
w 51 2.718282 0
w -53 0.367879 0
w 53 2.718282 0
w -54 0.367879 0
w 54 2.718282 0
w -56 0.367879 0
w 56 2.718282 0
w -58 0.367879 0
w 58 2.718282 0
w -60 0.367879 0
w 60 2.718282 0
w -62 0.367879 0
w 62 2.718282 0
w -64 0.367879 0
w 64 2.718282 0
2 1 4 0
2 -1 -4 0
-2 1 -4 0
-2 -1 4 0
3 1 15 0
3 -1 -15 0
-3 1 -15 0
-3 -1 15 0
5 4 7 0
5 -4 -7 0
-5 4 -7 0
-5 -4 7 0
6 4 18 0
6 -4 -18 0
-6 4 -18 0
-6 -4 18 0
8 7 10 0
8 -7 -10 0
-8 7 -10 0
-8 -7 10 0
9 7 21 0
9 -7 -21 0
-9 7 -21 0
-9 -7 21 0
11 10 13 0
11 -10 -13 0
-11 10 -13 0
-11 -10 13 0
12 10 24 0
12 -10 -24 0
-12 10 -24 0
-12 -10 24 0
14 13 27 0
14 -13 -27 0
-14 13 -27 0
-14 -13 27 0
16 15 18 0
16 -15 -18 0
-16 15 -18 0
-16 -15 18 0
17 15 29 0
17 -15 -29 0
-17 15 -29 0
-17 -15 29 0
19 18 21 0
19 -18 -21 0
-19 18 -21 0
-19 -18 21 0
20 18 32 0
20 -18 -32 0
-20 18 -32 0
-20 -18 32 0
22 21 24 0
22 -21 -24 0
-22 21 -24 0
-22 -21 24 0
23 21 35 0
23 -21 -35 0
-23 21 -35 0
-23 -21 35 0
25 24 27 0
25 -24 -27 0
-25 24 -27 0
-25 -24 27 0
26 24 38 0
26 -24 -38 0
-26 24 -38 0
-26 -24 38 0
28 27 41 0
28 -27 -41 0
-28 27 -41 0
-28 -27 41 0
30 29 32 0
30 -29 -32 0
-30 29 -32 0
-30 -29 32 0
31 29 43 0
31 -29 -43 0
-31 29 -43 0
-31 -29 43 0
33 32 35 0
33 -32 -35 0
-33 32 -35 0
-33 -32 35 0
34 32 46 0
34 -32 -46 0
-34 32 -46 0
-34 -32 46 0
36 35 38 0
36 -35 -38 0
-36 35 -38 0
-36 -35 38 0
37 35 49 0
37 -35 -49 0
-37 35 -49 0
-37 -35 49 0
39 38 41 0
39 -38 -41 0
-39 38 -41 0
-39 -38 41 0
40 38 52 0
40 -38 -52 0
-40 38 -52 0
-40 -38 52 0
42 41 55 0
42 -41 -55 0
-42 41 -55 0
-42 -41 55 0
44 43 46 0
44 -43 -46 0
-44 43 -46 0
-44 -43 46 0
45 43 57 0
45 -43 -57 0
-45 43 -57 0
-45 -43 57 0
47 46 49 0
47 -46 -49 0
-47 46 -49 0
-47 -46 49 0
48 46 59 0
48 -46 -59 0
-48 46 -59 0
-48 -46 59 0
50 49 52 0
50 -49 -52 0
-50 49 -52 0
-50 -49 52 0
51 49 61 0
51 -49 -61 0
-51 49 -61 0
-51 -49 61 0
53 52 55 0
53 -52 -55 0
-53 52 -55 0
-53 -52 55 0
54 52 63 0
54 -52 -63 0
-54 52 -63 0
-54 -52 63 0
56 55 65 0
56 -55 -65 0
-56 55 -65 0
-56 -55 65 0
58 57 59 0
58 -57 -59 0
-58 57 -59 0
-58 -57 59 0
60 59 61 0
60 -59 -61 0
-60 59 -61 0
-60 -59 61 0
62 61 63 0
62 -61 -63 0
-62 61 -63 0
-62 -61 63 0
64 63 65 0
64 -63 -65 0
-64 63 -65 0
-64 -63 65 0
